.old/.old_results_backup1/mps/Fattahi_setup_02.mps
NAME F-JSSP-SDST
ROWS
 N  OBJ
 E  c0      
 E  c1      
 E  c2      
 E  c3      
 L  c4      
 L  c5      
 L  c6      
 L  c7      
 L  c8      
 L  c9      
 G  c10     
 G  c11     
 G  c12     
 G  c13     
 G  c14     
 G  c15     
 G  c16     
 G  c17     
 G  c18     
 G  c19     
 G  c20     
 G  c21     
 G  c22     
 G  c23     
 G  c24     
 G  c25     
 G  c26     
 G  c27     
 E  c28     
COLUMNS
    MARKER    'MARKER'                 'INTORG'
    B0(7)     c0        1
    B0(7)     c4        -1000000000
    B0(7)     c10       -43
    B0(7)     c11       -1000000043
    B0(7)     c14       -1000000000
    B0(7)     c15       -1000000000
    B0(7)     c28       -43
    B1(6)     c1        1
    B1(6)     c5        -1000000000
    B1(6)     c11       -1000000000
    B1(6)     c16       -1000000000
    B1(6)     c17       -1000000000
    B1(6)     c28       -64
    B2(7)     c1        1
    B2(7)     c6        -1000000000
    B2(7)     c18       -1000000000
    B2(7)     c19       -1000000000
    B2(7)     c20       -1000000000
    B2(7)     c21       -1000000000
    B2(7)     c28       -71
    B3(9)     c2        1
    B3(9)     c7        -1000000000
    B3(9)     c12       -21
    B3(9)     c13       -21
    B3(9)     c14       -1000000000
    B3(9)     c15       -1000000000
    B3(9)     c16       -1000000000
    B3(9)     c17       -1000000000
    B3(9)     c28       -21
    B4(7)     c2        1
    B4(7)     c8        -1000000000
    B4(7)     c12       -35
    B4(7)     c13       -1000000035
    B4(7)     c18       -1000000000
    B4(7)     c19       -1000000000
    B4(7)     c28       -35
    B5(6)     c3        1
    B5(6)     c9        -1000000000
    B5(6)     c13       -1000000000
    B5(6)     c20       -1000000000
    B5(6)     c21       -1000000000
    B5(6)     c28       -43
    B6(2)     c14       -1000000000
    B6(2)     c15       1000000000
    B7(2)     c16       -1000000000
    B7(2)     c17       1000000000
    B8(2)     c18       -1000000000
    B8(2)     c19       1000000000
    B9(2)     c20       -1000000000
    B9(2)     c21       1000000000
    MARKER    'MARKER'                 'INTEND'
    C10(7)    c4        1
    C10(7)    c10       -1
    C10(7)    c11       -1
    C10(7)    c14       1
    C10(7)    c15       -1
    C10(7)    c22       1
    C10(7)    c28       -1
    C11(7)    c5        1
    C11(7)    c10       1
    C11(7)    c11       1
    C11(7)    c16       1
    C11(7)    c17       -1
    C11(7)    c23       1
    C11(7)    c28       -1
    C12(9)    c6        1
    C12(9)    c10       1
    C12(9)    c11       1
    C12(9)    c18       1
    C12(9)    c19       -1
    C12(9)    c20       1
    C12(9)    c21       -1
    C12(9)    c24       1
    C12(9)    c28       -1
    C13(9)    c7        1
    C13(9)    c12       -1
    C13(9)    c13       -1
    C13(9)    c14       -1
    C13(9)    c15       1
    C13(9)    c16       -1
    C13(9)    c17       1
    C13(9)    c25       1
    C13(9)    c28       -1
    C14(7)    c8        1
    C14(7)    c12       -1
    C14(7)    c13       -1
    C14(7)    c18       -1
    C14(7)    c19       1
    C14(7)    c26       1
    C14(7)    c28       -1
    C15(7)    c9        1
    C15(7)    c12       1
    C15(7)    c13       1
    C15(7)    c20       -1
    C15(7)    c21       1
    C15(7)    c27       1
    C15(7)    c28       -1
    C16(1)    OBJ       1
    C16(1)    c28       1
RHS
    RHS1      c0        1
    RHS1      c1        1
    RHS1      c2        1
    RHS1      c3        1
    RHS1      c11       -1999999995
    RHS1      c13       -1999999995
    RHS1      c14       -2999999974
    RHS1      c15       -1999999952
    RHS1      c16       -2999999975
    RHS1      c17       -1999999933
    RHS1      c18       -2999999960
    RHS1      c19       -1999999926
    RHS1      c20       -2999999953
    RHS1      c21       -1999999924
BOUNDS
 BV BND1      B0(7)   
 BV BND1      B1(6)   
 BV BND1      B2(7)   
 BV BND1      B3(9)   
 BV BND1      B4(7)   
 BV BND1      B5(6)   
 BV BND1      B6(2)   
 BV BND1      B7(2)   
 BV BND1      B8(2)   
 BV BND1      B9(2)   
ENDATA
