results/lp/Fattahi_setup_02.lp
\ Model F-JSSP-SDST
\ LP format - for model browsing. Use MPS format to capture full model detail.
Minimize
  C_max
Subject To
 assignment_job0_stage0_constraint: y[job_0,_stage_0,_machine_1] = 1
 assignment_job0_stage1_constraint: y[job_0,_stage_1,_machine_1]
   + y[job_0,_stage_1,_machine_2] = 1
 assignment_job1_stage0_constraint: y[job_1,_stage_0,_machine_1]
   + y[job_1,_stage_0,_machine_2] = 1
 assignment_job1_stage1_constraint: y[job_1,_stage_1,_machine_2] = 1
 start_time_job0_stage0_machine1_constraint1:
   - 1e+09 y[job_0,_stage_0,_machine_1] + startT[job_0,_stage_0,_machine_1]
   <= 0
 start_time_job0_stage1_machine1_constraint1:
   - 1e+09 y[job_0,_stage_1,_machine_1] + startT[job_0,_stage_1,_machine_1]
   <= 0
 start_time_job0_stage1_machine2_constraint1:
   - 1e+09 y[job_0,_stage_1,_machine_2] + startT[job_0,_stage_1,_machine_2]
   <= 0
 start_time_job1_stage0_machine1_constraint1:
   - 1e+09 y[job_1,_stage_0,_machine_1] + startT[job_1,_stage_0,_machine_1]
   <= 0
 start_time_job1_stage0_machine2_constraint1:
   - 1e+09 y[job_1,_stage_0,_machine_2] + startT[job_1,_stage_0,_machine_2]
   <= 0
 start_time_job1_stage1_machine2_constraint1:
   - 1e+09 y[job_1,_stage_1,_machine_2] + startT[job_1,_stage_1,_machine_2]
   <= 0
 start_time_job0_stage0_machine2_constraint2:
   - 43 y[job_0,_stage_0,_machine_1] - startT[job_0,_stage_0,_machine_1]
   + startT[job_0,_stage_1,_machine_1] + startT[job_0,_stage_1,_machine_2]
   >= 0
 start_time_job0_stage0_machine1_constraint3:
   - 1.000000043e+09 y[job_0,_stage_0,_machine_1]
   - 1e+09 y[job_0,_stage_1,_machine_1] - startT[job_0,_stage_0,_machine_1]
   + startT[job_0,_stage_1,_machine_1] + startT[job_0,_stage_1,_machine_2]
   >= -1.999999995e+09
 start_time_job1_stage0_machine1_constraint2:
   - 21 y[job_1,_stage_0,_machine_1] - 35 y[job_1,_stage_0,_machine_2]
   - startT[job_1,_stage_0,_machine_1] - startT[job_1,_stage_0,_machine_2]
   + startT[job_1,_stage_1,_machine_2] >= 0
 start_time_job1_stage0_machine2_constraint3:
   - 21 y[job_1,_stage_0,_machine_1]
   - 1.000000035e+09 y[job_1,_stage_0,_machine_2]
   - 1e+09 y[job_1,_stage_1,_machine_2] - startT[job_1,_stage_0,_machine_1]
   - startT[job_1,_stage_0,_machine_2] + startT[job_1,_stage_1,_machine_2]
   >= -1.999999995e+09
 precedence_between_1,0_to_0,0_if_x_[j,l,h,z,i]=1:
   - 1e+09 y[job_0,_stage_0,_machine_1]
   - 1e+09 y[job_1,_stage_0,_machine_1]
   - 1e+09 x[machine__1,_job1|stage1_0|0,_job2|stage2_1|0]
   + startT[job_0,_stage_0,_machine_1] - startT[job_1,_stage_0,_machine_1]
   >= -2.999999974e+09
 precedence_between_0,0_to_1,0_if_x_[j,l,h,z,i]=0:
   - 1e+09 y[job_0,_stage_0,_machine_1]
   - 1e+09 y[job_1,_stage_0,_machine_1]
   + 1e+09 x[machine__1,_job1|stage1_0|0,_job2|stage2_1|0]
   - startT[job_0,_stage_0,_machine_1] + startT[job_1,_stage_0,_machine_1]
   >= -1.999999952e+09
 precedence_between_1,0_to_0,1_if_x_[j,l,h,z,i]=1:
   - 1e+09 y[job_0,_stage_1,_machine_1]
   - 1e+09 y[job_1,_stage_0,_machine_1]
   - 1e+09 x[machine__1,_job1|stage1_0|1,_job2|stage2_1|0]
   + startT[job_0,_stage_1,_machine_1] - startT[job_1,_stage_0,_machine_1]
   >= -2.999999975e+09
 precedence_between_0,1_to_1,0_if_x_[j,l,h,z,i]=0:
   - 1e+09 y[job_0,_stage_1,_machine_1]
   - 1e+09 y[job_1,_stage_0,_machine_1]
   + 1e+09 x[machine__1,_job1|stage1_0|1,_job2|stage2_1|0]
   - startT[job_0,_stage_1,_machine_1] + startT[job_1,_stage_0,_machine_1]
   >= -1.999999933e+09
 precedence_between_1,0_to_0,1_if_x_[j,l,h,z,i]=1:
   - 1e+09 y[job_0,_stage_1,_machine_2]
   - 1e+09 y[job_1,_stage_0,_machine_2]
   - 1e+09 x[machine__2,_job1|stage1_0|1,_job2|stage2_1|0]
   + startT[job_0,_stage_1,_machine_2] - startT[job_1,_stage_0,_machine_2]
   >= -2.99999996e+09
 precedence_between_0,1_to_1,0_if_x_[j,l,h,z,i]=0:
   - 1e+09 y[job_0,_stage_1,_machine_2]
   - 1e+09 y[job_1,_stage_0,_machine_2]
   + 1e+09 x[machine__2,_job1|stage1_0|1,_job2|stage2_1|0]
   - startT[job_0,_stage_1,_machine_2] + startT[job_1,_stage_0,_machine_2]
   >= -1.999999926e+09
 precedence_between_1,1_to_0,1_if_x_[j,l,h,z,i]=1:
   - 1e+09 y[job_0,_stage_1,_machine_2]
   - 1e+09 y[job_1,_stage_1,_machine_2]
   - 1e+09 x[machine__2,_job1|stage1_0|1,_job2|stage2_1|1]
   + startT[job_0,_stage_1,_machine_2] - startT[job_1,_stage_1,_machine_2]
   >= -2.999999953e+09
 precedence_between_0,1_to_1,1_if_x_[j,l,h,z,i]=0:
   - 1e+09 y[job_0,_stage_1,_machine_2]
   - 1e+09 y[job_1,_stage_1,_machine_2]
   + 1e+09 x[machine__2,_job1|stage1_0|1,_job2|stage2_1|1]
   - startT[job_0,_stage_1,_machine_2] + startT[job_1,_stage_1,_machine_2]
   >= -1.999999924e+09
 positive_start_time_job0_stage0_machine1_constraint:
   startT[job_0,_stage_0,_machine_1] >= 0
 positive_start_time_job0_stage1_machine1_constraint:
   startT[job_0,_stage_1,_machine_1] >= 0
 positive_start_time_job0_stage1_machine2_constraint:
   startT[job_0,_stage_1,_machine_2] >= 0
 positive_start_time_job1_stage0_machine1_constraint:
   startT[job_1,_stage_0,_machine_1] >= 0
 positive_start_time_job1_stage0_machine2_constraint:
   startT[job_1,_stage_0,_machine_2] >= 0
 positive_start_time_job1_stage1_machine2_constraint:
   startT[job_1,_stage_1,_machine_2] >= 0
 max_contraint: - 43 y[job_0,_stage_0,_machine_1]
   - 64 y[job_0,_stage_1,_machine_1] - 71 y[job_0,_stage_1,_machine_2]
   - 21 y[job_1,_stage_0,_machine_1] - 35 y[job_1,_stage_0,_machine_2]
   - 43 y[job_1,_stage_1,_machine_2] - startT[job_0,_stage_0,_machine_1]
   - startT[job_0,_stage_1,_machine_1] - startT[job_0,_stage_1,_machine_2]
   - startT[job_1,_stage_0,_machine_1] - startT[job_1,_stage_0,_machine_2]
   - startT[job_1,_stage_1,_machine_2] + C_max = 0
Bounds
Binaries
 y[job_0,_stage_0,_machine_1] y[job_0,_stage_1,_machine_1]
 y[job_0,_stage_1,_machine_2] y[job_1,_stage_0,_machine_1]
 y[job_1,_stage_0,_machine_2] y[job_1,_stage_1,_machine_2]
 x[machine__1,_job1|stage1_0|0,_job2|stage2_1|0]
 x[machine__1,_job1|stage1_0|1,_job2|stage2_1|0]
 x[machine__2,_job1|stage1_0|1,_job2|stage2_1|0]
 x[machine__2,_job1|stage1_0|1,_job2|stage2_1|1]
End
