.old/.old_results_backup1/sol/Fattahi_setup_02.sol
# Solution for model F-JSSP-SDST
# Objective value = 273
B0(7) 1
B1(6) 1
B2(7) 0
B3(9) 0
B4(7) 1
B5(6) 1
B6(2) 0
B7(2) 0
B8(2) 0
B9(2) 0
C10(7) 0
C11(7) 48
C12(9) 0
C13(9) 0
C14(7) 0
C15(7) 40
C16(1) 273
